984
554
506
586
923
1411
1152
1288
721
1243
1206
1071
957
742
734
1491
1021
389
553
392
442
284
738
593
1668
869
1076
477
494
606
485
730
1400
1218
1151
1040
1591
782
515
794
703
978
620
470
530
422
521
209
182
285
98
177
1578
1345
1798
1889
1837
892
871
1160
513
600
